16 0 15 0 16 0 15 0 16 0 11 0 14 0 12 0 9 1 0 0 4 0 9 0 11 1 4 0 9 0 11 0 12 1
4 0 16 0 15 0 16 0 15 0 16 0 11 0 14 0 12 0 9 1 0 0 4 0 9 0 11 1 4 0 12 0 11 0 9 1
16 0 15 0 16 0 15 0 16 0 11 0 14 0 12 0 9 1 0 0 4 0 9 0 11 1 4 0 9 0 11 0 12 1
4 0 16 0 15 0 16 0 15 0 16 0 11 0 14 0 12 0 9 1 0 0 4 0 9 0 11 1 4 0 12 0 11 0 9 1
25 0 11 0 12 0 14 0 16 4 7 0 17 0 16 0 14 4 5 0 16 0 14 0 12 4 4 0 14 0 12 0 11 1 4 0 16 0 
15 0 16 0 15 0 16 0 11 0 14 0 12 0 9 1 0 0 4 0 9 0 11 1 4 0 9 0 11 0 12 1
4 0 16 0 15 0 16 0 15 0 16 0 11 0 14 0 12 0 9 1 0 0 4 0 9 0 11 1 4 0 12 0 11 0 9 1
4 1 5 1 7 1 12 3 17 2 16 0 16 1 14 1 22 2 21 0 21 0 19 0 17 0 16 0 14 0 12 0 10 1 9 1 
9 0 7 0 9 0 10 0 12 4 14 0 15 0 16 4 16 0 17 0 9 0 12 3 14 2 10 0 12 0 
19 0 7 0 19 0 9 0 19 0 11 0 19 0 12 0 19 0 14 0 19 0 16 0 19 0 24 0 23 0 21 0 19 0 17 0 16 0 14 0 19 0 17 0 14 0 
16 0 17 0 16 0 15 0 16 0 11 0 16 0 15 0 16 0 11 0 16 0 15 0 16 4
16 0 15 0 16 0 15 0 16 0 11 0 14 0 12 0 9 1 0 0 4 0 9 0 11 1 4 0 9 0 11 0 12 1
4 0 16 0 15 0 16 0 15 0 16 0 11 0 14 0 12 0 9 1 0 0 4 0 9 0 11 1 4 0 12 0 11 0 9 1
16 0 15 0 16 0 15 0 16 0 11 0 14 0 12 0 9 1 0 0 4 0 9 0 11 1 4 0 9 0 11 0 12 1
4 0 16 0 15 0 16 0 15 0 16 0 11 0 14 0 12 0 9 1 0 0 4 0 9 0 11 1 4 0 12 0 11 0 9 1
25 0 11 0 12 0 14 0 16 4 7 0 17 0 16 0 14 4 5 0 16 0 14 0 12 4 4 0 14 0 12 0 11 1 4 0 16 0 
15 0 16 0 15 0 16 0 11 0 14 0 12 0 9 1 0 0 4 0 9 0 11 1 4 0 9 0 11 0 12 1
4 0 16 0 15 0 16 0 15 0 16 0 11 0 14 0 12 0 9 1 0 0 4 0 9 0 11 1 4 0 12 0 11 0 9 1
4 1 5 1 7 1 12 3 17 2 16 0 16 1 14 1 22 2 21 0 21 0 19 0 17 0 16 0 14 0 12 0 10 1 9 1 
9 0 7 0 9 0 10 0 12 4 14 0 15 0 16 4 16 0 17 0 9 0 12 3 14 2 10 0 12 0   